h 53 -3 11 0
h -2 -7 0
h -6 7 0
9526082261037575 -43 0
6954166164585603 6 -7 0
1 8 -5 0
h 50 -12 0
h 35 49 0
h 12 -8 -26 0
h -7 -11 0
h 52 26 0
h 37 4 0
h -29 6 0
8982817843231663 -50 0
h -9 43 0
20442936337447219 3 -6 0
7446602255120583 -49 0
8870138825371950 7 -4 0
8627154298807157 -52 0
9302777225507890 -4 6 0
h 6 53 -3 0
h 8 4 0
12274903895039713 -53 0
1240749880151073 5 0
h 8 43 0
h 3 -4 0
h 2 8 0
6126430897047293 -44 0
10599452664476487 -6 0
1319546638792850 4 -7 0
h 3 9 0
3193261296179636 -3 6 0
h 12 -8 29 0
6162364656898327 4 0
9743598362000572 3 -2 0
h 7 44 0
h -35 4 0
2513099550623153 -37 0
h -6 43 0
